c CNF-Signature XNOR_3
c 
c $p 3 1
c $m (1,2,3,4)
c $u 1
c $u 2
c $u 3
c $u 4
p cnf 4 8
1 2 3 4 0
-1 2 3 -4 0
1 -2 3 -4 0
-1 -2 3 4 0
1 2 -3 -4 0
-1 2 -3 4 0
1 -2 -3 4 0
-1 -2 -3 -4 0
